Assets/LKHProbs~/skull.8.tsp
NAME : GeneratedProblem
COMMENT : SVGCrosshatch
TYPE : TSP
DIMENSION : 16
EDGE_WEIGHT_TYPE : EUC_2D
NODE_COORD_SECTION
1 7200 1500
2 7300 1300
3 7300 1400
4 7300 1500
5 7400 1100
6 7400 1200
7 7500 900
8 7500 1000
9 7500 1100
10 7500 1200
11 7600 1300
12 7600 1400
13 7600 1500
14 7700 1300
15 7700 1400
16 7700 1500
EOF
